objective value:                                   -3
t_n_11                                              1 	(obj:-1)
t_n_566                                             1 	(obj:-1)
t_n_605                                             1 	(obj:-1)
